*SENSE:Minimize
NAME          LP_Problem
ROWS
 N  Objective
 E  Constraint_1
 E  Constraint_2
 E  Constraint_3
 E  Constraint_4
 E  Constraint_5
COLUMNS
    x1        Constraint_1   1.000000000000e+00
    x1        Constraint_2   1.000000000000e+00
    x1        Constraint_3   4.000000000000e+00
    x1        Constraint_4   2.000000000000e+00
    x1        Constraint_5   2.000000000000e+00
    x1        Objective  -2.000000000000e+01
    x2        Constraint_1  -2.000000000000e+00
    x2        Constraint_3   9.000000000000e+00
    x2        Constraint_4   2.000000000000e+00
    x2        Constraint_5  -1.000000000000e+00
    x2        Objective  -1.200000000000e+01
    x3        Constraint_1   3.000000000000e+00
    x3        Constraint_2   1.000000000000e+00
    x3        Constraint_3   1.000000000000e+00
    x3        Constraint_4   1.000000000000e+00
    x3        Constraint_5   5.000000000000e+00
    x3        Objective  -1.500000000000e+01
    x4        Constraint_1   1.000000000000e+00
    x4        Constraint_3   4.000000000000e+00
    x4        Constraint_4   1.000000000000e+00
    x4        Objective  -6.000000000000e+00
    x5        Constraint_1   1.000000000000e+00
    x6        Constraint_2   1.000000000000e+00
    x7        Constraint_3   1.000000000000e+00
    x8        Constraint_4   1.000000000000e+00
    x9        Constraint_5   1.000000000000e+00
RHS
    RHS       Constraint_1   9.900000000000e+01
    RHS       Constraint_2   4.000000000000e+01
    RHS       Constraint_3   1.060000000000e+02
    RHS       Constraint_4   6.000000000000e+01
    RHS       Constraint_5   1.700000000000e+02
BOUNDS
ENDATA
